set VV := 0 1 2 3 4 5 6 7 8 9 10 11 12 13 14 15 16 17 18 19 20 21 22 23 24 25 26 27 28 29 30 31 32 33 34 35 36 37 38 39 40 41 42 43 44 ;
set VS := 0 1 2 3 4 5 6 7 8 9 10 11 12 13 14 15 16 17 18 19 20 21 22 23 24 25 26 27 28 29 30 31 32 33 34 35 36 37 38 39 40 41 42 43 44 45 46 47 48 49 50 51 52 53 54 55 56 57 58 59 60 61 62 63 64 65 66 67 68 69 70 71 72 73 74 75 76 77 78 79 80 81 82 83 84 85 86 87 88 89 90 91 92 93 94 ;
param cv := 
0 12
1 24
2 11
3 12
4 23
5 13
6 23
7 17
8 13
9 22
10 24
11 18
12 19
13 22
14 11
15 10
16 11
17 21
18 11
19 11
20 15
21 20
22 23
23 21
24 25
25 11
26 22
27 16
28 14
29 18
30 18
31 16
32 21
33 13
34 19
35 19
36 16
37 13
38 23
39 18
40 16
41 24
42 14
43 21
44 18
;
param cs := 
0 30
1 40
2 31
3 34
4 27
5 30
6 21
7 36
8 31
9 27
10 28
11 35
12 34
13 39
14 30
15 22
16 20
17 39
18 39
19 36
20 29
21 31
22 27
23 23
24 28
25 24
26 27
27 30
28 23
29 31
30 24
31 24
32 28
33 37
34 38
35 39
36 37
37 26
38 34
39 35
40 22
41 27
42 40
43 37
44 25
45 20
46 20
47 38
48 29
49 23
50 25
51 23
52 30
53 39
54 25
55 30
56 25
57 21
58 36
59 39
60 20
61 33
62 26
63 36
64 36
65 26
66 20
67 27
68 38
69 40
70 36
71 26
72 34
73 21
74 37
75 31
76 29
77 39
78 20
79 21
80 40
81 39
82 34
83 23
84 34
85 21
86 24
87 33
88 37
89 24
90 35
91 38
92 28
93 33
94 38
;
param bv:	 0 1 2 3 4 5 6 7 8 9 10 11 12 13 14 15 16 17 18 19 20 21 22 23 24 25 26 27 28 29 30 31 32 33 34 35 36 37 38 39 40 41 42 43 44 := 
		0 0 0 0 0 0 0 0 0 0 0 0 0 0 0 0 0 0 0 0 0 0 0 0 0 0 0 0 0 0 0 0 0 15 0 0 0 0 0 0 0 0 0 0 0 0 
		1 0 0 0 0 0 0 0 0 0 22 0 0 0 0 0 0 0 0 0 0 0 0 0 0 0 0 0 23 0 21 0 0 0 0 17 0 0 0 0 20 0 0 0 0 0 
		2 0 0 0 0 0 0 0 0 0 0 17 16 0 0 0 0 0 0 0 0 0 0 0 0 0 0 0 0 0 0 0 0 0 0 0 0 0 0 21 0 0 0 0 0 16 
		3 0 0 0 0 0 0 0 0 0 0 0 0 0 20 0 0 0 0 0 0 0 0 19 0 0 0 0 0 0 0 0 0 20 0 0 0 0 0 0 0 25 15 0 0 10 
		4 0 0 0 0 0 0 0 0 0 0 13 0 0 0 0 0 0 14 0 0 0 0 0 0 0 0 0 0 0 0 0 0 0 0 0 0 0 0 12 0 0 15 0 0 0 
		5 0 0 0 0 0 0 0 0 0 0 0 0 0 0 0 0 0 0 0 0 0 0 0 0 15 0 0 0 0 0 0 18 0 0 0 0 0 15 0 0 0 0 0 0 0 
		6 0 0 0 0 0 0 0 0 0 0 21 0 25 0 0 16 23 0 0 0 0 24 0 0 0 0 12 0 0 0 0 0 25 0 0 0 0 0 0 0 17 0 0 19 0 
		7 0 0 0 0 0 0 0 0 0 0 0 0 0 0 0 0 0 0 20 0 0 0 0 0 0 0 25 0 0 0 0 0 24 0 0 0 0 0 23 0 0 0 0 0 0 
		8 0 0 0 0 0 0 0 0 0 0 12 0 0 0 0 0 0 0 0 0 0 0 0 0 0 0 0 0 0 0 0 0 0 0 0 0 0 0 0 0 0 0 23 0 21 
		9 0 0 0 0 0 0 0 0 0 0 0 0 0 0 0 0 0 0 0 0 0 0 0 0 0 20 0 0 0 0 0 0 0 0 0 0 23 0 0 0 0 0 0 0 0 
		10 0 0 0 0 0 0 0 0 0 0 0 0 0 0 0 0 0 0 0 0 0 0 0 0 0 0 0 0 0 0 0 0 0 0 0 0 0 0 0 0 0 0 0 0 0 
		11 0 0 0 0 0 0 0 0 0 0 0 0 0 0 0 0 0 0 0 0 17 0 0 0 0 0 0 0 0 0 0 0 0 0 0 0 0 0 16 0 0 16 0 0 0 
		12 0 0 0 0 0 0 0 0 0 0 0 0 0 0 0 10 0 0 0 0 0 0 0 0 17 0 0 0 0 25 20 0 0 0 0 0 0 0 0 0 0 0 0 13 0 
		13 0 0 0 0 0 0 0 0 0 0 0 0 0 0 0 0 0 0 0 0 0 0 0 0 0 0 0 0 0 0 0 0 11 16 0 0 0 0 0 0 0 0 0 0 0 
		14 0 0 0 0 0 0 0 0 0 0 0 0 0 0 0 0 0 0 0 0 0 0 0 0 0 0 0 0 24 0 0 0 0 0 0 0 0 0 0 0 0 14 0 0 0 
		15 0 0 0 0 0 0 0 0 0 0 0 0 0 0 0 0 0 0 0 0 0 0 0 0 0 0 0 0 0 0 0 0 24 0 0 0 0 0 18 0 0 0 0 0 0 
		16 0 0 0 0 0 0 0 0 0 0 0 0 0 0 0 0 0 23 0 0 0 0 0 17 0 0 0 0 0 0 0 25 0 0 0 0 0 12 0 0 0 0 0 0 0 
		17 0 0 0 0 0 0 0 0 0 0 0 0 0 0 0 0 0 0 0 0 0 0 0 0 0 0 0 0 0 0 0 0 0 0 0 0 0 0 10 0 0 0 22 0 0 
		18 0 0 0 0 0 0 0 0 0 0 0 0 0 0 0 0 0 0 0 0 0 0 0 0 0 0 0 0 0 0 0 20 0 0 14 0 0 0 0 0 0 0 22 0 0 
		19 0 0 0 0 0 0 0 0 0 0 0 0 0 0 0 0 0 0 0 0 16 0 0 0 0 0 0 0 0 21 0 0 0 0 0 0 0 0 0 0 14 0 0 0 0 
		20 0 0 0 0 0 0 0 0 0 0 0 0 0 0 0 0 0 0 0 0 0 0 0 12 0 11 0 0 0 20 0 13 0 0 0 0 17 0 0 10 0 14 0 0 0 
		21 0 0 0 0 0 0 0 0 0 0 0 0 0 0 0 0 0 0 0 0 0 0 0 0 0 0 0 11 17 0 0 0 0 0 0 0 0 0 0 0 17 0 0 0 0 
		22 0 0 0 0 0 0 0 0 0 0 0 0 0 0 0 0 0 0 0 0 0 0 0 0 21 0 0 0 0 0 0 0 0 0 0 0 0 0 0 0 0 0 0 0 0 
		23 0 0 0 0 0 0 0 0 0 0 0 0 0 0 0 0 0 0 0 0 0 0 0 0 0 0 0 0 0 0 0 0 0 0 0 0 0 0 23 21 15 0 0 0 0 
		24 0 0 0 0 0 0 0 0 0 0 0 0 0 0 0 0 0 0 0 0 0 0 0 0 0 0 0 0 0 0 0 0 0 0 0 0 0 0 0 0 0 0 0 12 0 
		25 0 0 0 0 0 0 0 0 0 0 0 0 0 0 0 0 0 0 0 0 0 0 0 0 0 0 0 0 0 0 0 0 0 0 0 0 16 0 0 0 0 0 0 0 0 
		26 0 0 0 0 0 0 0 0 0 0 0 0 0 0 0 0 0 0 0 0 0 0 0 0 0 0 0 0 0 0 19 0 0 0 0 13 0 0 0 0 21 0 0 0 0 
		27 0 0 0 0 0 0 0 0 0 0 0 0 0 0 0 0 0 0 0 0 0 0 0 0 0 0 0 0 0 0 0 0 0 0 0 12 0 0 0 0 0 0 0 0 0 
		28 0 0 0 0 0 0 0 0 0 0 0 0 0 0 0 0 0 0 0 0 0 0 0 0 0 0 0 0 0 18 0 0 0 0 0 0 0 0 0 0 0 0 19 0 0 
		29 0 0 0 0 0 0 0 0 0 0 0 0 0 0 0 0 0 0 0 0 0 0 0 0 0 0 0 0 0 0 0 0 0 0 17 19 0 0 0 20 0 0 0 0 0 
		30 0 0 0 0 0 0 0 0 0 0 0 0 0 0 0 0 0 0 0 0 0 0 0 0 0 0 0 0 0 0 0 0 0 0 18 0 0 0 0 0 0 22 23 0 0 
		31 0 0 0 0 0 0 0 0 0 0 0 0 0 0 0 0 0 0 0 0 0 0 0 0 0 0 0 0 0 0 0 0 0 0 0 0 0 0 0 0 0 0 0 0 0 
		32 0 0 0 0 0 0 0 0 0 0 0 0 0 0 0 0 0 0 0 0 0 0 0 0 0 0 0 0 0 0 0 0 0 0 0 0 0 0 0 0 0 0 0 0 0 
		33 0 0 0 0 0 0 0 0 0 0 0 0 0 0 0 0 0 0 0 0 0 0 0 0 0 0 0 0 0 0 0 0 0 0 0 14 0 14 0 0 0 16 0 0 0 
		34 0 0 0 0 0 0 0 0 0 0 0 0 0 0 0 0 0 0 0 0 0 0 0 0 0 0 0 0 0 0 0 0 0 0 0 0 0 0 24 0 0 0 0 0 0 
		35 0 0 0 0 0 0 0 0 0 0 0 0 0 0 0 0 0 0 0 0 0 0 0 0 0 0 0 0 0 0 0 0 0 0 0 0 0 0 0 17 0 0 0 0 20 
		36 0 0 0 0 0 0 0 0 0 0 0 0 0 0 0 0 0 0 0 0 0 0 0 0 0 0 0 0 0 0 0 0 0 0 0 0 0 0 0 0 0 20 0 0 0 
		37 0 0 0 0 0 0 0 0 0 0 0 0 0 0 0 0 0 0 0 0 0 0 0 0 0 0 0 0 0 0 0 0 0 0 0 0 0 0 0 0 0 0 12 17 0 
		38 0 0 0 0 0 0 0 0 0 0 0 0 0 0 0 0 0 0 0 0 0 0 0 0 0 0 0 0 0 0 0 0 0 0 0 0 0 0 0 0 0 18 0 0 0 
		39 0 0 0 0 0 0 0 0 0 0 0 0 0 0 0 0 0 0 0 0 0 0 0 0 0 0 0 0 0 0 0 0 0 0 0 0 0 0 0 0 0 0 0 0 0 
		40 0 0 0 0 0 0 0 0 0 0 0 0 0 0 0 0 0 0 0 0 0 0 0 0 0 0 0 0 0 0 0 0 0 0 0 0 0 0 0 0 0 0 0 0 0 
		41 0 0 0 0 0 0 0 0 0 0 0 0 0 0 0 0 0 0 0 0 0 0 0 0 0 0 0 0 0 0 0 0 0 0 0 0 0 0 0 0 0 0 0 0 0 
		42 0 0 0 0 0 0 0 0 0 0 0 0 0 0 0 0 0 0 0 0 0 0 0 0 0 0 0 0 0 0 0 0 0 0 0 0 0 0 0 0 0 0 0 0 0 
		43 0 0 0 0 0 0 0 0 0 0 0 0 0 0 0 0 0 0 0 0 0 0 0 0 0 0 0 0 0 0 0 0 0 0 0 0 0 0 0 0 0 0 0 0 24 
		44 0 0 0 0 0 0 0 0 0 0 0 0 0 0 0 0 0 0 0 0 0 0 0 0 0 0 0 0 0 0 0 0 0 0 0 0 0 0 0 0 0 0 0 0 0 
;
param bs:	 0 1 2 3 4 5 6 7 8 9 10 11 12 13 14 15 16 17 18 19 20 21 22 23 24 25 26 27 28 29 30 31 32 33 34 35 36 37 38 39 40 41 42 43 44 45 46 47 48 49 50 51 52 53 54 55 56 57 58 59 60 61 62 63 64 65 66 67 68 69 70 71 72 73 74 75 76 77 78 79 80 81 82 83 84 85 86 87 88 89 90 91 92 93 94 := 
		0 0 0 0 0 0 0 20 0 33 0 0 0 0 0 0 0 0 0 0 0 0 0 0 0 0 0 31 0 0 0 0 0 0 0 36 0 0 0 0 0 0 0 0 0 0 0 0 0 0 0 22 0 0 0 36 0 0 0 0 0 39 0 0 0 0 0 0 0 0 0 0 0 0 0 0 20 0 0 0 0 0 0 0 0 0 22 0 0 0 0 0 0 25 0 0 
		1 0 0 0 0 0 0 0 0 0 0 0 0 0 0 28 0 0 0 0 0 0 0 0 0 0 0 0 0 0 0 0 0 40 0 0 0 0 0 0 0 0 0 0 21 0 0 0 0 0 21 0 0 0 0 0 0 0 21 0 0 0 0 0 0 0 0 0 36 40 0 0 0 0 0 0 0 0 0 0 0 0 0 0 0 0 0 0 0 0 0 0 0 0 0 0 
		2 0 0 0 0 0 0 0 29 0 0 0 0 0 0 0 0 0 0 0 0 0 0 28 0 0 0 0 0 0 0 0 0 0 0 23 0 0 34 0 0 0 0 29 0 30 0 0 0 0 0 0 0 0 40 0 0 0 0 0 0 0 0 0 0 0 0 0 0 0 37 0 0 0 0 0 0 0 0 0 0 0 0 0 0 0 0 32 0 0 0 0 0 0 0 0 
		3 0 0 0 0 0 0 0 0 0 0 0 0 0 0 0 40 0 0 0 0 0 0 0 40 0 0 0 0 0 0 0 0 0 33 0 0 0 0 38 0 0 0 0 0 0 0 0 0 0 0 0 0 0 0 0 0 0 22 0 0 0 0 0 0 0 0 0 0 0 0 0 0 37 0 0 0 0 0 24 0 23 0 0 0 0 0 0 0 0 0 25 0 0 0 0 
		4 0 0 0 0 0 0 0 0 39 29 0 0 0 0 0 0 0 0 0 0 0 0 0 0 0 0 0 0 0 0 0 0 0 0 0 39 0 0 0 22 0 0 20 0 0 0 0 0 0 27 0 0 0 20 0 0 0 0 0 0 0 0 24 0 0 0 0 0 0 0 0 0 0 0 0 0 0 0 0 0 25 0 0 0 0 0 0 0 0 0 27 0 0 0 0 
		5 0 0 0 0 0 0 0 0 0 0 22 28 24 0 0 0 0 0 0 27 0 0 0 35 0 0 0 0 0 0 0 0 0 0 0 0 0 0 30 0 0 0 0 29 0 0 0 0 0 0 0 0 0 0 0 35 0 0 32 38 39 0 0 0 0 0 0 0 0 0 0 0 0 0 39 0 0 0 0 0 0 0 0 0 0 0 0 38 0 0 0 0 37 0 0 
		6 20 0 0 0 0 0 0 0 0 0 27 27 25 0 0 0 0 0 0 40 0 0 0 0 0 0 0 21 0 0 0 0 0 0 0 0 0 0 0 0 0 0 0 0 0 0 0 0 0 0 0 0 0 28 0 0 0 0 40 0 0 0 0 0 0 0 0 0 0 0 0 0 0 0 0 0 0 0 0 0 0 0 0 0 0 0 0 0 0 0 0 0 0 0 0 
		7 0 0 29 0 0 0 0 0 0 0 0 0 0 0 0 0 0 0 0 0 0 0 0 0 0 0 0 0 0 0 24 0 0 0 0 0 0 23 0 0 0 30 0 0 0 0 0 0 0 0 0 0 0 0 0 40 23 0 0 0 21 0 0 0 0 0 0 0 0 0 0 0 0 0 26 0 0 0 0 0 0 0 0 0 0 0 0 0 0 0 0 0 0 0 0 
		8 33 0 0 0 39 0 0 0 0 0 0 0 0 0 0 0 0 0 0 0 0 0 0 0 0 0 0 0 0 0 0 0 0 0 0 0 0 0 0 0 0 0 0 0 0 0 0 20 0 0 24 32 24 0 0 24 0 22 0 0 0 0 20 40 0 0 0 0 23 0 0 0 0 0 0 0 0 0 0 0 0 0 0 0 0 0 0 0 0 0 0 0 0 0 0 
		9 0 0 0 0 29 0 0 0 0 0 25 0 0 0 0 0 0 0 0 0 0 0 22 26 0 0 0 22 0 39 0 0 0 0 0 0 0 0 0 0 0 0 0 0 34 0 0 0 0 24 0 0 0 0 0 0 0 36 0 0 0 33 0 0 0 0 0 0 0 0 0 0 0 40 0 0 0 0 0 0 0 0 0 31 0 20 0 0 0 0 0 0 0 0 0 
		10 0 0 0 0 0 22 27 0 0 25 0 0 0 0 22 0 0 0 0 0 0 0 0 0 0 0 0 35 0 0 0 0 0 0 0 0 0 0 0 0 0 0 0 36 0 0 0 0 0 0 36 0 0 0 0 0 0 0 22 0 0 0 0 0 0 0 0 0 0 0 0 0 0 0 0 0 0 0 0 0 0 0 0 0 0 0 0 0 0 0 0 0 0 0 0 
		11 0 0 0 0 0 28 27 0 0 0 0 0 0 0 0 0 0 0 0 32 0 0 0 0 0 0 0 0 0 0 0 0 0 0 0 0 0 0 0 32 0 0 0 0 0 0 0 0 0 0 0 0 0 0 27 0 0 0 0 0 0 0 0 0 0 0 0 0 0 0 0 0 0 0 0 0 0 0 0 0 0 0 0 0 0 0 0 0 0 0 0 0 0 0 0 
		12 0 0 0 0 0 24 25 0 0 0 0 0 0 0 0 0 0 0 0 0 0 0 22 0 0 0 0 0 0 0 0 0 33 23 29 0 0 0 0 0 37 0 0 40 21 0 0 0 0 0 0 0 0 0 0 0 0 0 0 22 0 0 25 0 0 0 0 0 0 0 0 0 0 0 0 0 0 28 0 0 0 0 0 0 0 0 30 20 21 0 40 0 39 0 0 
		13 0 0 0 0 0 0 0 0 0 0 0 0 0 0 0 28 0 0 0 0 0 0 0 0 0 0 0 0 0 0 0 26 0 0 0 0 0 0 0 0 0 0 0 0 0 0 0 0 0 0 0 0 0 39 0 0 0 39 0 0 0 36 0 0 28 0 0 24 0 0 0 37 0 0 0 0 0 0 0 0 0 0 0 0 0 0 0 0 0 0 0 0 0 0 0 
		14 0 28 0 0 0 0 0 0 0 0 22 0 0 0 0 0 0 0 38 0 0 0 0 0 0 0 0 0 0 38 0 0 0 0 0 0 0 0 0 0 0 0 0 0 35 33 0 0 0 0 0 0 0 0 0 27 40 0 0 0 0 0 32 0 0 0 0 0 0 0 0 0 0 27 0 0 0 0 0 0 0 0 0 0 0 0 0 0 0 0 0 0 0 0 0 
		15 0 0 0 40 0 0 0 0 0 0 0 0 0 28 0 0 0 0 0 0 0 0 0 27 0 0 0 0 0 0 0 0 22 0 0 0 0 40 0 0 0 39 0 0 0 0 0 0 0 0 0 0 0 0 0 0 0 0 0 0 0 0 0 0 0 0 0 0 0 40 0 0 0 0 36 0 0 0 0 0 32 0 0 0 0 0 0 0 0 0 0 0 28 0 0 
		16 0 0 0 0 0 0 0 0 0 0 0 0 0 0 0 0 0 0 0 0 0 0 0 0 0 0 0 0 0 40 0 0 0 0 0 0 0 0 0 0 0 0 0 0 0 0 0 0 29 0 0 0 0 0 0 0 0 0 0 0 0 0 28 0 0 27 0 22 0 0 0 0 0 0 0 0 0 0 0 0 0 0 0 0 0 0 0 0 0 0 0 0 31 0 0 
		17 0 0 0 0 0 0 0 0 0 0 0 0 0 0 0 0 0 0 0 0 20 0 0 0 0 0 0 36 0 0 0 0 33 0 0 0 0 0 0 0 0 26 0 0 24 25 0 0 0 0 0 0 0 0 0 31 0 0 0 0 0 0 0 0 0 0 0 0 0 27 0 0 31 0 0 0 0 0 39 0 0 0 0 0 0 0 0 0 0 0 0 0 0 0 0 
		18 0 0 0 0 0 0 0 0 0 0 0 0 0 0 38 0 0 0 0 0 0 0 0 0 0 0 0 0 0 24 0 0 0 0 0 0 0 0 0 0 0 24 0 0 0 22 0 0 0 0 0 0 0 0 0 0 0 0 23 0 0 0 0 0 24 0 32 0 0 0 40 0 0 0 0 0 32 0 0 0 30 0 35 0 40 0 23 0 0 0 0 0 0 0 0 
		19 0 0 0 0 0 27 40 0 0 0 0 32 0 0 0 0 0 0 0 0 0 0 0 0 0 0 0 0 0 0 0 37 0 0 0 0 0 0 28 0 0 0 0 0 0 0 0 0 0 0 0 0 0 0 0 31 0 0 0 0 0 0 31 0 30 0 0 0 0 0 0 0 28 0 0 0 0 22 0 0 0 0 0 0 0 0 0 0 0 0 0 0 0 35 0 
		20 0 0 0 0 0 0 0 0 0 0 0 0 0 0 0 0 0 20 0 0 0 0 0 0 0 0 0 0 0 0 0 23 0 0 0 0 0 0 0 37 0 0 0 39 20 0 0 0 0 0 0 0 0 0 0 0 24 0 0 0 37 0 0 0 0 0 0 0 32 0 0 36 0 0 0 33 0 0 0 0 0 0 0 0 0 0 0 0 0 0 0 0 0 0 20 
		21 0 0 0 0 0 0 0 0 0 0 0 0 0 0 0 0 0 0 0 0 0 0 0 0 21 35 33 33 0 0 0 0 0 0 0 0 0 0 34 0 0 35 0 0 0 0 40 0 0 0 28 40 0 0 22 0 0 0 0 0 0 0 0 24 0 0 30 0 0 0 0 0 37 30 31 39 0 0 0 0 0 32 0 0 0 0 0 0 0 0 0 0 0 0 0 
		22 0 0 28 0 0 0 0 0 0 22 0 0 22 0 0 0 0 0 0 0 0 0 0 0 0 0 0 0 0 36 0 0 0 0 0 0 0 0 0 0 37 0 0 0 0 0 0 0 0 0 0 0 0 0 0 0 0 38 0 0 0 29 0 0 21 0 0 0 0 35 0 0 0 0 0 0 0 0 0 32 0 0 0 0 0 0 0 0 0 0 0 0 0 0 0 
		23 0 0 0 40 0 35 0 0 0 26 0 0 0 0 0 27 0 0 0 0 0 0 0 0 0 0 0 0 0 0 0 0 30 0 29 0 0 0 0 0 0 0 0 0 0 0 0 0 0 34 20 0 0 0 0 0 0 0 0 0 0 34 30 0 0 0 0 0 0 0 0 0 0 0 24 0 0 0 0 0 0 0 0 0 0 33 0 0 26 0 0 0 0 0 0 
		24 0 0 0 0 0 0 0 0 0 0 0 0 0 0 0 0 0 0 0 0 0 21 0 0 0 0 29 0 0 0 25 21 0 29 0 0 0 29 0 0 0 0 0 0 0 0 0 0 0 0 0 0 0 0 0 0 0 0 0 0 0 0 0 0 0 0 0 0 0 0 0 0 0 0 0 0 0 0 0 0 38 0 27 0 0 0 0 0 33 0 34 0 0 0 0 
		25 0 0 0 0 0 0 0 0 0 0 0 0 0 0 0 0 0 0 0 0 0 35 0 0 0 0 0 0 0 0 27 0 0 0 0 0 0 0 0 0 36 0 0 0 0 0 0 0 0 0 0 0 0 25 0 0 0 0 0 0 0 0 0 38 0 0 0 0 0 0 0 0 35 0 0 0 0 0 0 0 20 0 0 0 0 0 0 0 0 36 32 0 0 0 0 
		26 31 0 0 0 0 0 0 0 0 0 0 0 0 0 0 0 0 0 0 0 0 33 0 0 29 0 0 24 0 0 0 0 0 0 0 0 25 0 0 0 0 0 24 0 0 20 0 0 0 0 0 23 0 0 31 0 36 0 0 0 0 0 0 0 0 0 0 23 22 0 26 0 0 0 0 0 0 0 0 0 0 0 0 0 0 0 0 0 0 0 0 38 0 0 0 
		27 0 0 0 0 0 0 21 0 0 22 35 0 0 0 0 0 0 36 0 0 0 33 0 0 0 0 24 0 0 0 0 0 0 0 0 0 0 0 0 0 0 0 0 0 29 26 0 0 0 0 0 22 0 0 0 33 0 0 0 0 0 0 0 0 0 0 0 36 25 0 0 0 0 35 0 0 0 0 0 0 0 36 0 0 0 24 0 21 0 0 0 0 0 0 0 
		28 0 0 0 0 0 0 0 0 0 0 0 0 0 0 0 0 0 0 0 0 0 0 0 0 0 0 0 0 0 0 37 0 0 0 0 25 0 23 0 0 29 0 0 0 0 0 0 0 0 0 0 0 37 0 0 0 0 24 0 0 0 0 0 0 0 0 0 0 0 0 0 0 0 30 0 0 0 0 0 36 0 0 37 0 0 0 0 0 0 0 0 0 0 29 0 
		29 0 0 0 0 0 0 0 0 0 39 0 0 0 0 38 0 40 0 24 0 0 0 36 0 0 0 0 0 0 0 0 0 0 0 0 0 0 0 0 0 0 0 0 0 0 0 32 0 0 0 0 0 0 0 0 0 39 0 0 32 0 0 37 0 0 0 0 0 0 0 0 40 0 0 0 22 0 0 0 0 33 0 0 0 0 0 0 0 0 0 32 0 0 0 0 
		30 0 0 0 0 0 0 0 24 0 0 0 0 0 0 0 0 0 0 0 0 0 0 0 0 25 27 0 0 37 0 0 21 0 0 0 0 0 20 0 0 0 0 0 0 0 0 0 0 0 0 0 0 0 0 0 0 0 0 26 0 0 0 0 0 0 0 0 0 0 37 0 0 0 0 0 0 0 0 0 0 0 0 0 0 0 0 0 0 0 0 0 0 0 0 0 
		31 0 0 0 0 0 0 0 0 0 0 0 0 0 26 0 0 0 0 0 37 23 0 0 0 21 0 0 0 0 0 21 0 0 0 0 28 0 0 0 0 0 0 0 0 0 0 0 0 0 0 0 0 0 0 0 0 0 0 0 0 0 0 0 0 0 0 0 0 0 35 0 0 0 0 0 0 0 0 0 0 0 0 0 0 0 0 0 0 24 0 0 0 0 35 0 
		32 0 40 0 0 0 0 0 0 0 0 0 0 33 0 0 22 0 33 0 0 0 0 0 30 0 0 0 0 0 0 0 0 0 0 39 0 0 0 0 30 0 0 0 0 0 0 0 0 0 0 24 0 0 0 0 0 0 0 0 0 23 0 0 0 0 0 35 0 0 0 0 0 25 0 0 0 0 0 0 28 0 0 20 0 0 0 0 0 0 0 0 0 0 0 0 
		33 0 0 0 33 0 0 0 0 0 0 0 0 23 0 0 0 0 0 0 0 0 0 0 0 29 0 0 0 0 0 0 0 0 0 40 0 0 0 24 0 39 21 0 0 0 0 0 0 0 0 0 0 0 0 0 0 0 26 0 0 0 0 0 0 26 0 0 0 0 0 0 0 30 0 0 0 0 0 0 0 0 0 0 0 0 0 0 0 0 0 0 0 0 0 0 
		34 36 0 23 0 0 0 0 0 0 0 0 0 29 0 0 0 0 0 0 0 0 0 0 29 0 0 0 0 0 0 0 0 39 40 0 0 0 32 0 0 27 0 0 0 0 0 0 27 0 24 33 0 0 0 0 37 0 0 0 0 34 0 0 0 0 0 0 0 31 0 0 0 24 0 0 0 0 0 0 0 0 0 0 0 0 0 0 27 0 0 0 0 0 0 0 
		35 0 0 0 0 39 0 0 0 0 0 0 0 0 0 0 0 0 0 0 0 0 0 0 0 0 0 0 0 25 0 0 28 0 0 0 0 27 0 0 0 0 0 0 22 21 0 0 0 0 0 0 0 0 0 0 0 0 0 38 0 0 0 0 0 0 0 0 0 0 0 0 0 0 0 0 0 0 0 0 0 0 0 0 0 0 0 0 0 0 0 0 0 0 0 0 
		36 0 0 0 0 0 0 0 0 0 0 0 0 0 0 0 0 0 0 0 0 0 0 0 0 0 0 25 0 0 0 0 0 0 0 0 27 0 0 0 0 0 0 0 0 0 0 0 0 23 0 0 0 0 0 0 0 0 0 0 0 0 38 0 0 0 0 0 0 0 0 0 0 0 0 0 0 0 0 0 0 0 0 0 23 0 0 0 0 0 0 0 0 0 0 0 
		37 0 0 34 0 0 0 0 23 0 0 0 0 0 0 0 40 0 0 0 0 0 0 0 0 29 0 0 0 23 0 20 0 0 0 32 0 0 0 0 0 0 40 0 0 30 0 0 0 0 0 0 0 0 35 0 0 0 0 38 0 0 0 0 0 0 0 29 0 0 0 0 0 0 0 0 0 20 0 0 0 0 0 0 0 0 0 0 0 34 32 39 0 0 0 0 
		38 0 0 0 38 0 30 0 0 0 0 0 0 0 0 0 0 0 0 0 28 0 34 0 0 0 0 0 0 0 0 0 0 0 24 0 0 0 0 0 0 0 0 0 0 29 0 0 0 0 0 0 0 0 0 0 0 0 0 0 20 0 0 0 0 0 0 0 0 24 0 0 0 0 0 0 0 0 0 0 0 0 0 0 0 0 0 0 0 0 0 0 0 0 0 0 
		39 0 0 0 0 22 0 0 0 0 0 0 32 0 0 0 0 0 0 0 0 37 0 0 0 0 0 0 0 0 0 0 0 30 0 0 0 0 0 0 0 0 20 0 0 0 0 0 0 0 0 0 0 0 20 39 0 26 0 0 0 0 0 0 0 0 0 0 0 0 0 35 38 0 0 0 0 0 0 0 0 0 0 0 0 0 0 0 0 0 0 33 0 0 0 0 
		40 0 0 0 0 0 0 0 0 0 0 0 0 37 0 0 0 0 0 0 0 0 0 37 0 0 36 0 0 29 0 0 0 0 39 27 0 0 0 0 0 0 0 0 0 0 0 0 0 0 0 0 0 0 0 0 0 0 0 0 0 0 38 23 0 0 0 0 0 21 0 0 0 0 0 0 0 0 0 21 0 0 0 0 35 0 39 0 0 27 29 0 0 38 0 0 
		41 0 0 0 0 0 0 0 30 0 0 0 0 0 0 0 39 0 26 24 0 0 35 0 0 0 0 0 0 0 0 0 0 0 21 0 0 0 40 0 20 0 0 0 0 0 0 0 0 0 0 0 0 0 0 0 0 0 0 33 0 0 0 0 38 0 0 0 0 0 0 0 0 0 0 0 33 0 0 0 0 0 25 0 0 0 0 24 0 0 0 37 0 0 0 22 
		42 0 0 29 0 20 0 0 0 0 0 0 0 0 0 0 0 0 0 0 0 0 0 0 0 0 0 24 0 0 0 0 0 0 0 0 0 0 0 0 0 0 0 0 0 33 32 0 0 0 0 0 0 0 0 0 25 0 0 0 0 40 0 30 0 0 0 0 0 31 0 20 0 0 0 0 36 0 0 0 0 0 0 0 0 0 0 0 0 0 0 0 0 0 0 0 
		43 0 21 0 0 0 29 0 0 0 0 36 0 40 0 0 0 0 0 0 0 39 0 0 0 0 0 0 0 0 0 0 0 0 0 0 22 0 0 0 0 0 0 0 0 0 0 0 0 0 0 0 0 0 0 0 0 0 0 0 31 0 38 27 0 0 0 22 0 0 0 0 0 0 0 36 0 0 0 36 0 0 0 0 0 0 0 32 0 0 0 0 0 0 0 0 
		44 0 0 30 0 0 0 0 0 0 34 0 0 21 0 35 0 0 24 0 0 20 0 0 0 0 0 0 29 0 0 0 0 0 0 0 21 0 30 29 0 0 0 33 0 0 30 0 0 0 0 0 0 0 0 0 0 29 0 0 0 32 0 0 0 0 0 0 40 0 0 0 0 0 0 32 0 24 20 0 0 28 0 0 0 0 0 0 0 0 0 0 0 0 0 0 
		45 0 0 0 0 0 0 0 0 0 0 0 0 0 0 33 0 0 25 22 0 0 0 0 0 0 0 20 26 0 0 0 0 0 0 0 0 0 0 0 0 0 0 32 0 30 0 0 0 0 0 0 0 0 20 22 40 0 0 0 0 0 0 0 0 0 0 0 0 0 33 0 0 0 0 0 0 0 0 0 0 0 0 0 0 0 0 0 0 0 0 0 0 0 0 0 
		46 0 0 0 0 0 0 0 0 0 0 0 0 0 0 0 0 0 0 0 0 0 40 0 0 0 0 0 0 0 32 0 0 0 0 0 0 0 0 0 0 0 0 0 0 0 0 0 0 0 0 0 0 0 0 0 0 38 0 0 0 28 0 0 0 27 0 0 0 0 0 0 34 0 0 0 0 0 0 0 0 0 0 22 0 0 0 0 0 0 0 0 0 0 0 23 
		47 0 0 0 0 0 0 0 0 20 0 0 0 0 0 0 0 0 0 0 0 0 0 0 0 0 0 0 0 0 0 0 0 0 0 27 0 0 0 0 0 0 0 0 0 0 0 0 0 0 0 40 0 0 0 0 0 0 0 0 0 0 0 30 0 0 0 0 36 0 0 0 0 0 0 0 0 0 0 0 0 0 0 0 0 0 0 0 0 0 0 0 0 0 0 0 
		48 0 0 0 0 0 0 0 0 0 0 0 0 0 0 0 0 29 0 0 0 0 0 0 0 0 0 0 0 0 0 0 0 0 0 0 0 23 0 0 0 0 0 0 0 0 0 0 0 0 0 0 0 0 0 0 0 0 0 0 0 0 33 0 0 0 0 0 0 0 0 0 0 0 0 0 0 0 0 0 24 0 0 0 23 0 0 0 0 0 0 0 0 0 40 0 
		49 0 21 0 0 27 0 0 0 0 24 0 0 0 0 0 0 0 0 0 0 0 0 0 34 0 0 0 0 0 0 0 0 0 0 24 0 0 0 0 0 0 0 0 0 0 0 0 0 0 0 0 24 0 0 23 24 0 0 0 0 39 0 0 0 0 0 0 0 0 0 0 0 0 24 26 0 0 0 0 0 0 0 0 0 0 0 0 0 0 0 0 0 0 0 0 
		50 22 0 0 0 0 0 0 0 24 0 36 0 0 0 0 0 0 0 0 0 0 28 0 20 0 0 0 0 0 0 0 0 24 0 33 0 0 0 0 0 0 0 0 0 0 0 0 40 0 0 0 0 0 0 39 0 0 0 0 0 0 0 0 0 0 0 0 0 0 0 40 0 32 0 0 0 0 0 22 0 0 0 0 0 0 0 0 25 0 0 0 0 0 0 0 
		51 0 0 0 0 0 0 0 0 32 0 0 0 0 0 0 0 0 0 0 0 0 40 0 0 0 0 23 22 0 0 0 0 0 0 0 0 0 0 0 0 0 0 0 0 0 0 0 0 0 24 0 0 0 0 0 0 35 0 0 0 0 0 0 0 0 0 0 0 0 0 0 0 0 0 0 0 0 0 0 0 0 0 0 0 0 0 0 0 34 0 0 0 0 0 0 
		52 0 0 0 0 0 0 0 0 24 0 0 0 0 0 0 0 0 0 0 0 0 0 0 0 0 0 0 0 37 0 0 0 0 0 0 0 0 0 0 0 0 0 0 0 0 0 0 0 0 0 0 0 0 0 0 0 0 0 0 0 0 0 0 40 0 0 0 0 0 0 0 0 0 0 0 0 0 0 0 0 0 0 38 0 0 40 37 0 0 0 0 0 0 0 0 
		53 0 0 40 0 20 0 28 0 0 0 0 0 0 39 0 0 0 0 0 0 0 0 0 0 0 25 0 0 0 0 0 0 0 0 0 0 0 35 0 20 0 0 0 0 0 20 0 0 0 0 0 0 0 0 0 0 0 39 0 0 0 0 0 26 21 0 0 0 0 37 0 0 0 0 0 0 0 0 0 0 0 0 0 0 0 0 0 0 0 0 0 0 0 0 0 
		54 36 0 0 0 0 0 0 0 0 0 0 27 0 0 0 0 0 0 0 0 0 22 0 0 0 0 31 0 0 0 0 0 0 0 0 0 0 0 0 39 0 0 0 0 0 22 0 0 0 23 39 0 0 0 0 0 0 0 0 0 0 0 0 0 0 0 0 0 0 26 0 0 25 0 0 0 0 0 29 0 0 0 0 0 0 0 0 0 0 0 0 0 0 0 37 
		55 0 0 0 0 0 35 0 40 24 0 0 0 0 0 27 0 0 31 0 31 0 0 0 0 0 0 0 33 0 0 0 0 0 0 37 0 0 0 0 0 0 0 25 0 0 40 0 0 0 24 0 0 0 0 0 0 0 0 28 0 37 0 0 0 0 0 23 0 0 0 0 0 0 32 0 26 0 0 0 0 0 0 0 0 0 0 0 0 0 26 0 0 0 0 37 
		56 0 0 0 0 0 0 0 23 0 0 0 0 0 0 40 0 0 0 0 0 24 0 0 0 0 0 36 0 0 39 0 0 0 0 0 0 0 0 0 26 0 0 0 0 29 0 38 0 0 0 0 35 0 0 0 0 0 0 0 0 23 0 20 0 0 0 0 0 24 0 0 0 0 0 0 0 0 0 0 0 0 0 0 0 0 0 0 0 0 0 0 0 0 0 0 
		57 0 21 0 22 0 0 0 0 22 36 0 0 0 39 0 0 0 0 0 0 0 0 38 0 0 0 0 0 24 0 0 0 0 26 0 0 0 0 0 0 0 0 0 0 0 0 0 0 0 0 0 0 0 39 0 0 0 0 0 0 0 0 0 0 27 0 0 0 0 0 0 0 0 0 0 0 0 0 0 0 40 28 0 0 0 0 30 0 0 0 0 0 0 0 0 
		58 0 0 0 0 0 32 40 0 0 0 22 0 0 0 0 0 0 0 23 0 0 0 0 0 0 0 0 0 0 0 26 0 0 0 0 38 0 38 0 0 0 33 0 0 0 0 0 0 0 0 0 0 0 0 0 28 0 0 0 0 0 0 0 0 0 0 0 0 24 0 0 0 0 0 24 0 0 0 0 33 0 0 0 0 0 28 0 0 0 0 0 0 0 0 0 
		59 0 0 0 0 0 38 0 0 0 0 0 0 22 0 0 0 0 0 0 0 0 0 0 0 0 0 0 0 0 32 0 0 0 0 0 0 0 0 20 0 0 0 0 31 0 0 0 0 0 0 0 0 0 0 0 0 0 0 0 0 0 33 0 0 0 0 0 0 0 29 0 0 0 0 29 0 0 27 0 0 0 0 0 27 0 35 0 24 36 0 0 0 0 0 0 
		60 39 0 0 0 0 39 0 21 0 0 0 0 0 0 0 0 0 0 0 0 37 0 0 0 0 0 0 0 0 0 0 0 23 0 34 0 0 0 0 0 0 0 40 0 32 0 28 0 0 39 0 0 0 0 0 37 23 0 0 0 0 0 36 0 0 0 0 0 0 0 0 0 0 0 0 0 0 0 0 0 0 0 0 0 0 0 0 28 35 0 0 0 0 0 0 
		61 0 0 0 0 0 0 0 0 0 33 0 0 0 36 0 0 0 0 0 0 0 0 29 34 0 0 0 0 0 0 0 0 0 0 0 0 38 0 0 0 38 0 0 38 0 0 0 0 33 0 0 0 0 0 0 0 0 0 0 33 0 0 0 0 0 0 0 0 0 0 0 0 0 0 0 0 0 21 0 0 0 0 0 0 0 0 0 0 0 0 0 0 24 0 0 
		62 0 0 0 0 24 0 0 0 20 0 0 0 25 0 32 0 28 0 0 31 0 0 0 30 0 0 0 0 0 37 0 0 0 0 0 0 0 0 0 0 23 0 30 27 0 0 0 30 0 0 0 0 0 0 0 0 20 0 0 0 36 0 0 0 0 0 28 0 0 0 0 0 0 0 0 0 0 0 0 35 0 0 0 0 0 31 27 0 0 27 0 0 27 38 0 
		63 0 0 0 0 0 0 0 0 40 0 0 0 0 0 0 0 0 0 0 0 0 24 0 0 0 38 0 0 0 0 0 0 0 0 0 0 0 0 0 0 0 38 0 0 0 0 0 0 0 0 0 0 40 26 0 0 0 0 0 0 0 0 0 0 37 0 0 0 0 0 0 38 0 0 0 0 0 0 0 0 0 0 0 0 0 0 0 0 34 0 0 0 0 0 0 
		64 0 0 0 0 0 0 0 0 0 0 0 0 0 28 0 0 0 0 24 30 0 0 21 0 0 0 0 0 0 0 0 0 0 26 0 0 0 0 0 0 0 0 0 0 0 0 27 0 0 0 0 0 0 21 0 0 0 27 0 0 0 0 0 37 0 0 0 25 0 21 0 0 0 0 0 0 0 0 0 0 0 0 0 0 0 0 0 0 0 0 0 0 0 0 0 
		65 0 0 0 0 0 0 0 0 0 0 0 0 0 0 0 0 27 0 0 0 0 0 0 0 0 0 0 0 0 0 0 0 0 0 0 0 0 0 0 0 0 0 0 0 0 0 0 0 0 0 0 0 0 0 0 0 0 0 0 0 0 0 0 0 0 0 29 0 0 0 29 0 0 0 0 0 0 0 0 0 0 0 38 0 0 0 0 0 35 0 29 0 0 0 0 
		66 0 0 0 0 0 0 0 0 0 0 0 0 0 0 0 0 0 0 32 0 0 30 0 0 0 0 0 0 0 0 0 0 35 0 0 0 0 29 0 0 0 0 0 22 0 0 0 0 0 0 0 0 0 0 0 23 0 0 0 0 0 0 28 0 0 29 0 0 0 0 0 36 0 0 0 0 0 0 0 0 0 20 0 0 0 0 0 0 0 27 0 0 0 0 0 
		67 0 36 0 0 0 0 0 0 0 0 0 0 0 24 0 0 22 0 0 0 0 0 0 0 0 0 23 36 0 0 0 0 0 0 0 0 0 0 0 0 0 0 0 0 40 0 0 36 0 0 0 0 0 0 0 0 0 0 0 0 0 0 0 0 25 0 0 0 0 0 0 0 0 0 0 0 0 0 0 0 30 32 0 0 0 32 0 0 0 0 0 0 0 0 0 
		68 0 40 0 0 0 0 0 0 23 0 0 0 0 0 0 0 0 0 0 0 32 0 0 0 0 0 22 25 0 0 0 0 0 0 31 0 0 0 24 0 21 0 31 0 0 0 0 0 0 0 0 0 0 0 0 0 24 0 24 0 0 0 0 0 0 0 0 0 0 0 0 0 0 0 0 0 0 0 0 0 0 0 0 0 0 0 0 26 0 30 0 0 0 0 0 
		69 0 0 37 0 0 0 0 0 0 0 0 0 0 0 0 40 0 27 0 0 0 0 35 0 0 0 0 0 0 0 37 35 0 0 0 0 0 0 0 0 0 0 0 0 0 33 0 0 0 0 0 0 0 37 26 0 0 0 0 29 0 0 0 0 21 0 0 0 0 0 0 0 0 0 29 0 0 32 0 0 33 27 0 0 0 0 0 0 0 0 0 0 0 0 0 
		70 0 0 0 0 0 0 0 0 0 0 0 0 0 0 0 0 0 0 40 0 0 0 0 0 0 0 26 0 0 0 0 0 0 0 0 0 0 0 0 35 0 0 20 0 0 0 0 0 0 0 40 0 0 0 0 0 0 0 0 0 0 0 0 0 0 29 0 0 0 0 0 38 0 32 0 0 0 0 0 25 29 23 0 0 0 0 0 0 0 0 0 0 0 0 38 
		71 0 0 0 0 0 0 0 0 0 0 0 0 0 37 0 0 0 0 0 0 36 0 0 0 0 0 0 0 0 40 0 0 0 0 0 0 0 0 0 38 0 0 0 0 0 0 34 0 0 0 0 0 0 0 0 0 0 0 0 0 0 0 0 38 0 0 36 0 0 0 38 0 0 0 0 0 0 0 29 0 0 0 0 0 0 0 0 0 0 0 0 0 0 0 0 
		72 0 0 0 37 0 0 0 0 0 0 0 0 0 0 0 0 0 31 0 28 0 37 0 0 0 35 0 0 0 0 0 0 25 30 24 0 0 0 0 0 0 0 0 0 0 0 0 0 0 0 32 0 0 0 25 0 0 0 0 0 0 0 0 0 0 0 0 0 0 0 0 0 0 0 0 0 0 0 0 0 0 0 0 0 0 0 0 33 0 0 0 0 0 0 0 
		73 0 0 0 0 0 0 0 0 0 40 0 0 0 0 27 0 0 0 0 0 0 30 0 0 0 0 0 35 30 0 0 0 0 0 0 0 0 0 0 0 0 0 0 0 0 0 0 0 0 24 0 0 0 0 0 32 0 0 0 0 0 0 0 0 0 0 0 0 0 0 32 0 0 0 0 0 0 0 0 0 0 0 0 0 0 0 0 0 0 0 0 0 0 0 0 
		74 0 0 0 0 0 39 0 26 0 0 0 0 0 0 0 36 0 0 0 0 0 31 0 24 0 0 0 0 0 0 0 0 0 0 0 0 0 0 0 0 0 0 0 36 32 0 0 0 0 26 0 0 0 0 0 0 0 0 24 29 0 0 0 0 0 0 0 0 0 29 0 0 0 0 0 24 0 0 0 21 0 21 0 0 0 0 0 0 37 0 0 0 29 0 0 
		75 20 0 0 0 0 0 0 0 0 0 0 0 0 0 0 0 0 0 0 0 33 39 0 0 0 0 0 0 0 22 0 0 0 0 0 0 0 0 0 0 0 33 36 0 0 0 0 0 0 0 0 0 0 0 0 26 0 0 0 0 0 0 0 0 0 0 0 0 0 0 0 0 0 0 24 0 0 0 0 0 0 0 0 0 0 0 0 0 0 0 0 0 0 0 0 
		76 0 0 0 0 0 0 0 0 0 0 0 0 0 0 0 0 0 0 32 0 0 0 0 0 0 0 0 0 0 0 0 0 0 0 0 0 0 20 0 0 0 0 0 0 24 0 0 0 0 0 0 0 0 0 0 0 0 0 0 0 0 0 0 0 0 0 0 0 0 0 0 0 0 0 0 0 0 0 0 0 0 0 0 0 0 0 0 0 0 35 0 0 0 0 0 
		77 0 0 0 0 0 0 0 0 0 0 0 0 28 0 0 0 0 0 0 22 0 0 0 0 0 0 0 0 0 0 0 0 0 0 0 0 0 0 0 0 0 0 0 0 20 0 0 0 0 0 0 0 0 0 0 0 0 0 0 27 0 21 0 0 0 0 0 0 0 32 0 0 0 0 0 0 0 0 0 0 0 0 0 0 0 0 0 0 0 0 0 0 0 0 0 
		78 0 0 0 24 0 0 0 0 0 0 0 0 0 0 0 0 0 39 0 0 0 0 0 0 0 0 0 0 0 0 0 0 0 0 0 0 0 0 0 0 21 0 0 36 0 0 0 0 0 0 22 0 0 0 29 0 0 0 0 0 0 0 0 0 0 0 0 0 0 0 0 29 0 0 0 0 0 0 0 0 0 0 30 0 0 22 0 0 0 0 0 0 0 23 0 
		79 0 0 0 0 0 0 0 0 0 0 0 0 0 0 0 0 0 0 0 0 0 0 32 0 0 0 0 0 36 0 0 0 28 0 0 0 0 0 0 0 0 0 0 0 0 0 0 0 24 0 0 0 0 0 0 0 0 0 33 0 0 0 35 0 0 0 0 0 0 0 25 0 0 0 21 0 0 0 0 0 0 0 0 0 0 34 0 39 35 0 30 0 38 0 0 
		80 0 0 0 23 25 0 0 0 0 0 0 0 0 0 0 32 0 0 30 0 0 0 0 0 38 20 0 0 0 33 0 0 0 0 0 0 0 0 0 0 0 0 0 0 28 0 0 0 0 0 0 0 0 0 0 0 0 40 0 0 0 0 0 0 0 0 0 30 0 33 29 0 0 0 0 0 0 0 0 0 0 0 0 0 0 0 0 0 0 0 0 0 0 0 0 
		81 0 0 0 0 0 0 0 0 0 0 0 0 0 0 0 0 0 0 0 0 0 32 0 0 0 0 0 36 0 0 0 0 0 0 0 0 0 0 0 0 0 25 0 0 0 0 0 0 0 0 0 0 0 0 0 0 0 28 0 0 0 0 0 0 0 0 20 32 0 27 23 0 0 0 21 0 0 0 0 0 0 0 0 0 0 0 0 0 0 0 0 0 0 0 39 
		82 0 0 0 0 0 0 0 0 0 0 0 0 0 0 0 0 0 0 35 0 0 0 0 0 27 0 0 0 37 0 0 0 20 0 0 0 0 0 0 0 0 0 0 0 0 0 22 0 0 0 0 0 38 0 0 0 0 0 0 0 0 0 0 0 0 38 0 0 0 0 0 0 0 0 0 0 0 0 30 0 0 0 0 0 0 0 0 0 0 0 0 0 0 0 0 
		83 0 0 0 0 0 0 0 0 0 31 0 0 0 0 0 0 0 0 0 0 0 0 0 0 0 0 0 0 0 0 0 0 0 0 0 0 23 0 0 0 35 0 0 0 0 0 0 0 23 0 0 0 0 0 0 0 0 0 0 27 0 0 0 0 0 0 0 0 0 0 0 0 0 0 0 0 0 0 0 0 0 0 0 0 0 0 0 0 0 0 0 0 0 0 0 
		84 0 0 0 0 0 0 0 0 0 0 0 0 0 0 0 0 0 0 40 0 0 0 0 0 0 0 0 0 0 0 0 0 0 0 0 0 0 0 0 0 0 0 0 0 0 0 0 0 0 0 0 0 0 0 0 0 0 0 0 0 0 0 0 0 0 0 0 0 0 0 0 0 0 0 0 0 0 0 0 0 0 0 0 0 0 0 28 0 20 0 0 33 0 0 0 
		85 22 0 0 0 0 0 0 0 0 20 0 0 0 0 0 0 0 0 0 0 0 0 0 33 0 0 0 24 0 0 0 0 0 0 0 0 0 0 0 0 39 0 0 0 0 0 0 0 0 0 0 0 40 0 0 0 0 0 28 35 0 0 31 0 0 0 0 32 0 0 0 0 0 0 0 0 0 0 22 34 0 0 0 0 0 0 0 0 0 0 0 0 0 0 0 
		86 0 0 32 0 0 0 0 0 0 0 0 0 30 0 0 0 0 0 23 0 0 0 0 0 0 0 0 0 0 0 0 0 0 0 0 0 0 0 0 0 0 24 0 32 0 0 0 0 0 0 0 0 37 0 0 0 0 30 0 0 0 0 27 0 0 0 0 0 0 0 0 0 0 0 0 0 0 0 0 0 0 0 0 0 28 0 0 0 0 37 0 0 0 0 0 
		87 0 0 0 0 0 38 0 0 0 0 0 0 20 0 0 0 0 0 0 0 0 0 0 0 0 0 0 21 0 0 0 0 0 0 27 0 0 0 0 0 0 0 0 0 0 0 0 0 0 0 25 0 0 0 0 0 0 0 0 24 28 0 0 0 0 0 0 0 26 0 0 0 33 0 0 0 0 0 0 39 0 0 0 0 0 0 0 0 0 0 0 0 0 0 0 
		88 0 0 0 0 0 0 0 0 0 0 0 0 21 0 0 0 0 0 0 0 0 0 0 26 33 0 0 0 0 0 0 24 0 0 0 0 0 34 0 0 27 0 0 0 0 0 0 0 0 0 0 34 0 0 0 0 0 0 0 36 35 0 0 34 0 35 0 0 0 0 0 0 0 0 37 0 0 0 0 35 0 0 0 0 20 0 0 0 0 0 0 0 0 0 0 
		89 0 0 0 0 0 0 0 0 0 0 0 0 0 0 0 0 0 0 0 0 0 0 0 0 0 36 0 0 0 0 0 0 0 0 0 0 0 32 0 0 29 0 0 0 0 0 0 0 0 0 0 0 0 0 0 26 0 0 0 0 0 0 27 0 0 0 27 0 30 0 0 0 0 0 0 0 35 0 0 0 0 0 0 0 0 0 37 0 0 0 0 0 0 0 0 
		90 0 0 0 25 27 0 0 0 0 0 0 0 40 0 0 0 0 0 0 0 0 0 0 0 34 32 0 0 0 32 0 0 0 0 0 0 0 39 0 33 0 37 0 0 0 0 0 0 0 0 0 0 0 0 0 0 0 0 0 0 0 0 0 0 0 29 0 0 0 0 0 0 0 0 0 0 0 0 0 30 0 0 0 0 0 0 0 0 0 0 0 0 0 0 0 
		91 0 0 0 0 0 0 0 0 0 0 0 0 0 0 0 0 0 0 0 0 0 0 0 0 0 0 38 0 0 0 0 0 0 0 0 0 0 0 0 0 0 0 0 0 0 0 0 0 0 0 0 0 0 0 0 0 0 0 0 0 0 0 0 0 0 0 0 0 0 0 0 0 0 0 0 0 0 0 0 0 0 0 0 0 33 0 0 0 0 0 0 0 0 0 0 
		92 25 0 0 0 0 37 0 0 0 0 0 0 39 0 0 28 31 0 0 0 0 0 0 0 0 0 0 0 0 0 0 0 0 0 0 0 0 0 0 0 38 0 0 0 0 0 0 0 0 0 0 0 0 0 0 0 0 0 0 0 0 24 27 0 0 0 0 0 0 0 0 0 0 0 29 0 0 0 0 38 0 0 0 0 0 0 0 0 0 0 0 0 0 0 0 
		93 0 0 0 0 0 0 0 0 0 0 0 0 0 0 0 0 0 0 0 35 0 0 0 0 0 0 0 0 29 0 0 35 0 0 0 0 0 0 0 0 0 0 0 0 0 0 0 0 40 0 0 0 0 0 0 0 0 0 0 0 0 0 38 0 0 0 0 0 0 0 0 0 0 0 0 0 0 0 23 0 0 0 0 0 0 0 0 0 0 0 0 0 0 0 0 
		94 0 0 0 0 0 0 0 0 0 0 0 0 0 0 0 0 0 0 0 0 20 0 0 0 0 0 0 0 0 0 0 0 0 0 0 0 0 0 0 0 0 22 0 0 0 0 23 0 0 0 0 0 0 0 37 37 0 0 0 0 0 0 0 0 0 0 0 0 0 0 38 0 0 0 0 0 0 0 0 0 0 39 0 0 0 0 0 0 0 0 0 0 0 0 0 
;
